p cnf 1492
-20 -468
-21 -471
-22 -474
-23 -477
-24 -480
-25 -483
-26 -486
-27 -489
-28 -492
-29 -495
-30 -498
-31 -501
-32 -504
-33 -507
-34 -510
-35 -513
-36 -516
-37 -519
-38 -522
-39 523
-40 524
-41 525
-42 526
-43 527
-44 528
-45 529
-46 530
-47 531
-48 532
-49 533
-50 534
-51 535
-52 536
-53 -21
-53 -22
21 22 53
-54 -23
-54 -24
23 24 54
-55 -25
-55 -26
25 26 55
-56 -27
-56 -28
27 28 56
-57 -29
-57 -30
29 30 57
-58 -31
-58 -32
31 32 58
-59 -33
-59 -34
33 34 59
-60 -35
-60 -36
35 36 60
-61 -37
-61 -38
37 38 61
-62 -39
-62 -40
39 40 62
-63 -41
-63 -42
41 42 63
-64 -43
-64 -44
43 44 64
-65 -45
-65 -46
45 46 65
-66 -47
-66 -48
47 48 66
-67 -49
-67 -50
49 50 67
-68 -51
-68 -52
51 52 68
-69 53
-69 54
-53 -54 69
-70 55
-70 56
-55 -56 70
-71 57
-71 58
-57 -58 71
-72 59
-72 60
-59 -60 72
-73 61
-73 62
-61 -62 73
-74 63
-74 64
-63 -64 74
-75 65
-75 66
-65 -66 75
-76 67
-76 68
-67 -68 76
-77 69
-77 70
-69 -70 77
-78 71
-78 72
-71 -72 78
-79 73
-79 74
-73 -74 79
-80 75
-80 76
-75 -76 80
-81 77
-81 78
-77 -78 81
-82 79
-82 80
-79 -80 82
-83 81
-83 82
-81 -82 83
-84 -20
-84 21
20 -21 84
-85 20
-85 -21
-20 21 85
-86 -84
-86 -85
84 85 86
-87 20
-87 21
-20 -21 87
-88 -20
-88 -86
20 86 88
-89 20
-89 86
-20 -86 89
-90 -88
-90 -89
88 89 90
-91 20
-91 -86
-20 86 91
-92 -87
-92 -91
87 91 92
-93 -21
-93 22
21 -22 93
-94 21
-94 -22
-21 22 94
-95 -93
-95 -94
93 94 95
-96 21
-96 22
-21 -22 96
-97 92
-97 -95
-92 95 97
-98 -92
-98 95
92 -95 98
-99 -97
-99 -98
97 98 99
-100 -92
-100 -95
92 95 100
-101 -96
-101 -100
96 100 101
-102 -22
-102 23
22 -23 102
-103 22
-103 -23
-22 23 103
-104 -102
-104 -103
102 103 104
-105 22
-105 23
-22 -23 105
-106 101
-106 -104
-101 104 106
-107 -101
-107 104
101 -104 107
-108 -106
-108 -107
106 107 108
-109 -101
-109 -104
101 104 109
-110 -105
-110 -109
105 109 110
-111 -23
-111 24
23 -24 111
-112 23
-112 -24
-23 24 112
-113 -111
-113 -112
111 112 113
-114 23
-114 24
-23 -24 114
-115 110
-115 -113
-110 113 115
-116 -110
-116 113
110 -113 116
-117 -115
-117 -116
115 116 117
-118 -110
-118 -113
110 113 118
-119 -114
-119 -118
114 118 119
-120 -24
-120 25
24 -25 120
-121 24
-121 -25
-24 25 121
-122 -120
-122 -121
120 121 122
-123 24
-123 25
-24 -25 123
-124 119
-124 -122
-119 122 124
-125 -119
-125 122
119 -122 125
-126 -124
-126 -125
124 125 126
-127 -119
-127 -122
119 122 127
-128 -123
-128 -127
123 127 128
-129 -25
-129 26
25 -26 129
-130 25
-130 -26
-25 26 130
-131 -129
-131 -130
129 130 131
-132 25
-132 26
-25 -26 132
-133 128
-133 -131
-128 131 133
-134 -128
-134 131
128 -131 134
-135 -133
-135 -134
133 134 135
-136 -128
-136 -131
128 131 136
-137 -132
-137 -136
132 136 137
-138 -26
-138 27
26 -27 138
-139 26
-139 -27
-26 27 139
-140 -138
-140 -139
138 139 140
-141 26
-141 27
-26 -27 141
-142 137
-142 -140
-137 140 142
-143 -137
-143 140
137 -140 143
-144 -142
-144 -143
142 143 144
-145 -137
-145 -140
137 140 145
-146 -141
-146 -145
141 145 146
-147 -27
-147 28
27 -28 147
-148 27
-148 -28
-27 28 148
-149 -147
-149 -148
147 148 149
-150 27
-150 28
-27 -28 150
-151 146
-151 -149
-146 149 151
-152 -146
-152 149
146 -149 152
-153 -151
-153 -152
151 152 153
-154 -146
-154 -149
146 149 154
-155 -150
-155 -154
150 154 155
-156 -28
-156 29
28 -29 156
-157 28
-157 -29
-28 29 157
-158 -156
-158 -157
156 157 158
-159 28
-159 29
-28 -29 159
-160 155
-160 -158
-155 158 160
-161 -155
-161 158
155 -158 161
-162 -160
-162 -161
160 161 162
-163 -155
-163 -158
155 158 163
-164 -159
-164 -163
159 163 164
-165 -29
-165 30
29 -30 165
-166 29
-166 -30
-29 30 166
-167 -165
-167 -166
165 166 167
-168 29
-168 30
-29 -30 168
-169 164
-169 -167
-164 167 169
-170 -164
-170 167
164 -167 170
-171 -169
-171 -170
169 170 171
-172 -164
-172 -167
164 167 172
-173 -168
-173 -172
168 172 173
-174 -30
-174 31
30 -31 174
-175 30
-175 -31
-30 31 175
-176 -174
-176 -175
174 175 176
-177 30
-177 31
-30 -31 177
-178 173
-178 -176
-173 176 178
-179 -173
-179 176
173 -176 179
-180 -178
-180 -179
178 179 180
-181 -173
-181 -176
173 176 181
-182 -177
-182 -181
177 181 182
-183 -31
-183 32
31 -32 183
-184 31
-184 -32
-31 32 184
-185 -183
-185 -184
183 184 185
-186 31
-186 32
-31 -32 186
-187 182
-187 -185
-182 185 187
-188 -182
-188 185
182 -185 188
-189 -187
-189 -188
187 188 189
-190 -182
-190 -185
182 185 190
-191 -186
-191 -190
186 190 191
-192 -32
-192 33
32 -33 192
-193 32
-193 -33
-32 33 193
-194 -192
-194 -193
192 193 194
-195 32
-195 33
-32 -33 195
-196 191
-196 -194
-191 194 196
-197 -191
-197 194
191 -194 197
-198 -196
-198 -197
196 197 198
-199 -191
-199 -194
191 194 199
-200 -195
-200 -199
195 199 200
-201 -33
-201 34
33 -34 201
-202 33
-202 -34
-33 34 202
-203 -201
-203 -202
201 202 203
-204 33
-204 34
-33 -34 204
-205 200
-205 -203
-200 203 205
-206 -200
-206 203
200 -203 206
-207 -205
-207 -206
205 206 207
-208 -200
-208 -203
200 203 208
-209 -204
-209 -208
204 208 209
-210 -34
-210 35
34 -35 210
-211 34
-211 -35
-34 35 211
-212 -210
-212 -211
210 211 212
-213 34
-213 35
-34 -35 213
-214 209
-214 -212
-209 212 214
-215 -209
-215 212
209 -212 215
-216 -214
-216 -215
214 215 216
-217 -209
-217 -212
209 212 217
-218 -213
-218 -217
213 217 218
-219 -35
-219 36
35 -36 219
-220 35
-220 -36
-35 36 220
-221 -219
-221 -220
219 220 221
-222 35
-222 36
-35 -36 222
-223 218
-223 -221
-218 221 223
-224 -218
-224 221
218 -221 224
-225 -223
-225 -224
223 224 225
-226 -218
-226 -221
218 221 226
-227 -222
-227 -226
222 226 227
-228 -36
-228 37
36 -37 228
-229 36
-229 -37
-36 37 229
-230 -228
-230 -229
228 229 230
-231 36
-231 37
-36 -37 231
-232 227
-232 -230
-227 230 232
-233 -227
-233 230
227 -230 233
-234 -232
-234 -233
232 233 234
-235 -227
-235 -230
227 230 235
-236 -231
-236 -235
231 235 236
-237 -37
-237 38
37 -38 237
-238 37
-238 -38
-37 38 238
-239 -237
-239 -238
237 238 239
-240 37
-240 38
-37 -38 240
-241 236
-241 -239
-236 239 241
-242 -236
-242 239
236 -239 242
-243 -241
-243 -242
241 242 243
-244 -236
-244 -239
236 239 244
-245 -240
-245 -244
240 244 245
-246 -38
-246 39
38 -39 246
-247 38
-247 -39
-38 39 247
-248 -246
-248 -247
246 247 248
-249 38
-249 39
-38 -39 249
-250 245
-250 -248
-245 248 250
-251 -245
-251 248
245 -248 251
-252 -250
-252 -251
250 251 252
-253 -245
-253 -248
245 248 253
-254 -249
-254 -253
249 253 254
-255 -39
-255 40
39 -40 255
-256 39
-256 -40
-39 40 256
-257 -255
-257 -256
255 256 257
-258 39
-258 40
-39 -40 258
-259 254
-259 -257
-254 257 259
-260 -254
-260 257
254 -257 260
-261 -259
-261 -260
259 260 261
-262 -254
-262 -257
254 257 262
-263 -258
-263 -262
258 262 263
-264 -40
-264 41
40 -41 264
-265 40
-265 -41
-40 41 265
-266 -264
-266 -265
264 265 266
-267 40
-267 41
-40 -41 267
-268 263
-268 -266
-263 266 268
-269 -263
-269 266
263 -266 269
-270 -268
-270 -269
268 269 270
-271 -263
-271 -266
263 266 271
-272 -267
-272 -271
267 271 272
-273 -41
-273 42
41 -42 273
-274 41
-274 -42
-41 42 274
-275 -273
-275 -274
273 274 275
-276 41
-276 42
-41 -42 276
-277 272
-277 -275
-272 275 277
-278 -272
-278 275
272 -275 278
-279 -277
-279 -278
277 278 279
-280 -272
-280 -275
272 275 280
-281 -276
-281 -280
276 280 281
-282 -42
-282 43
42 -43 282
-283 42
-283 -43
-42 43 283
-284 -282
-284 -283
282 283 284
-285 42
-285 43
-42 -43 285
-286 281
-286 -284
-281 284 286
-287 -281
-287 284
281 -284 287
-288 -286
-288 -287
286 287 288
-289 -281
-289 -284
281 284 289
-290 -285
-290 -289
285 289 290
-291 -43
-291 44
43 -44 291
-292 43
-292 -44
-43 44 292
-293 -291
-293 -292
291 292 293
-294 43
-294 44
-43 -44 294
-295 290
-295 -293
-290 293 295
-296 -290
-296 293
290 -293 296
-297 -295
-297 -296
295 296 297
-298 -290
-298 -293
290 293 298
-299 -294
-299 -298
294 298 299
-300 -44
-300 45
44 -45 300
-301 44
-301 -45
-44 45 301
-302 -300
-302 -301
300 301 302
-303 44
-303 45
-44 -45 303
-304 299
-304 -302
-299 302 304
-305 -299
-305 302
299 -302 305
-306 -304
-306 -305
304 305 306
-307 -299
-307 -302
299 302 307
-308 -303
-308 -307
303 307 308
-309 -45
-309 46
45 -46 309
-310 45
-310 -46
-45 46 310
-311 -309
-311 -310
309 310 311
-312 45
-312 46
-45 -46 312
-313 308
-313 -311
-308 311 313
-314 -308
-314 311
308 -311 314
-315 -313
-315 -314
313 314 315
-316 -308
-316 -311
308 311 316
-317 -312
-317 -316
312 316 317
-318 -46
-318 47
46 -47 318
-319 46
-319 -47
-46 47 319
-320 -318
-320 -319
318 319 320
-321 46
-321 47
-46 -47 321
-322 317
-322 -320
-317 320 322
-323 -317
-323 320
317 -320 323
-324 -322
-324 -323
322 323 324
-325 -317
-325 -320
317 320 325
-326 -321
-326 -325
321 325 326
-327 -47
-327 48
47 -48 327
-328 47
-328 -48
-47 48 328
-329 -327
-329 -328
327 328 329
-330 47
-330 48
-47 -48 330
-331 326
-331 -329
-326 329 331
-332 -326
-332 329
326 -329 332
-333 -331
-333 -332
331 332 333
-334 -326
-334 -329
326 329 334
-335 -330
-335 -334
330 334 335
-336 -48
-336 49
48 -49 336
-337 48
-337 -49
-48 49 337
-338 -336
-338 -337
336 337 338
-339 48
-339 49
-48 -49 339
-340 335
-340 -338
-335 338 340
-341 -335
-341 338
335 -338 341
-342 -340
-342 -341
340 341 342
-343 -335
-343 -338
335 338 343
-344 -339
-344 -343
339 343 344
-345 -49
-345 50
49 -50 345
-346 49
-346 -50
-49 50 346
-347 -345
-347 -346
345 346 347
-348 49
-348 50
-49 -50 348
-349 344
-349 -347
-344 347 349
-350 -344
-350 347
344 -347 350
-351 -349
-351 -350
349 350 351
-352 -344
-352 -347
344 347 352
-353 -348
-353 -352
348 352 353
-354 -50
-354 51
50 -51 354
-355 50
-355 -51
-50 51 355
-356 -354
-356 -355
354 355 356
-357 50
-357 51
-50 -51 357
-358 353
-358 -356
-353 356 358
-359 -353
-359 356
353 -356 359
-360 -358
-360 -359
358 359 360
-361 -353
-361 -356
353 356 361
-362 -357
-362 -361
357 361 362
-363 -51
-363 52
51 -52 363
-364 51
-364 -52
-51 52 364
-365 -363
-365 -364
363 364 365
-366 51
-366 52
-51 -52 366
-367 362
-367 -365
-362 365 367
-368 -362
-368 365
362 -365 368
-369 -367
-369 -368
367 368 369
-370 -362
-370 -365
362 365 370
-371 -366
-371 -370
366 370 371
-372 20
-372 -90
-20 90 372
-373 -20
-373 22
20 -22 373
-374 -372
-374 -373
372 373 374
-375 20
-375 -99
-20 99 375
-376 -20
-376 23
20 -23 376
-377 -375
-377 -376
375 376 377
-378 20
-378 -108
-20 108 378
-379 -20
-379 24
20 -24 379
-380 -378
-380 -379
378 379 380
-381 20
-381 -117
-20 117 381
-382 -20
-382 25
20 -25 382
-383 -381
-383 -382
381 382 383
-384 20
-384 -126
-20 126 384
-385 -20
-385 26
20 -26 385
-386 -384
-386 -385
384 385 386
-387 20
-387 -135
-20 135 387
-388 -20
-388 27
20 -27 388
-389 -387
-389 -388
387 388 389
-390 20
-390 -144
-20 144 390
-391 -20
-391 28
20 -28 391
-392 -390
-392 -391
390 391 392
-393 20
-393 -153
-20 153 393
-394 -20
-394 29
20 -29 394
-395 -393
-395 -394
393 394 395
-396 20
-396 -162
-20 162 396
-397 -20
-397 30
20 -30 397
-398 -396
-398 -397
396 397 398
-399 20
-399 -171
-20 171 399
-400 -20
-400 31
20 -31 400
-401 -399
-401 -400
399 400 401
-402 20
-402 -180
-20 180 402
-403 -20
-403 32
20 -32 403
-404 -402
-404 -403
402 403 404
-405 20
-405 -189
-20 189 405
-406 -20
-406 33
20 -33 406
-407 -405
-407 -406
405 406 407
-408 20
-408 -198
-20 198 408
-409 -20
-409 34
20 -34 409
-410 -408
-410 -409
408 409 410
-411 20
-411 -207
-20 207 411
-412 -20
-412 35
20 -35 412
-413 -411
-413 -412
411 412 413
-414 20
-414 -216
-20 216 414
-415 -20
-415 36
20 -36 415
-416 -414
-416 -415
414 415 416
-417 20
-417 -225
-20 225 417
-418 -20
-418 37
20 -37 418
-419 -417
-419 -418
417 418 419
-420 20
-420 -234
-20 234 420
-421 -20
-421 38
20 -38 421
-422 -420
-422 -421
420 421 422
-423 20
-423 -243
-20 243 423
-424 -20
-424 39
20 -39 424
-425 -423
-425 -424
423 424 425
-426 20
-426 -252
-20 252 426
-427 -20
-427 40
20 -40 427
-428 -426
-428 -427
426 427 428
-429 20
-429 -261
-20 261 429
-430 -20
-430 41
20 -41 430
-431 -429
-431 -430
429 430 431
-432 20
-432 -270
-20 270 432
-433 -20
-433 42
20 -42 433
-434 -432
-434 -433
432 433 434
-435 20
-435 -279
-20 279 435
-436 -20
-436 43
20 -43 436
-437 -435
-437 -436
435 436 437
-438 20
-438 -288
-20 288 438
-439 -20
-439 44
20 -44 439
-440 -438
-440 -439
438 439 440
-441 20
-441 -297
-20 297 441
-442 -20
-442 45
20 -45 442
-443 -441
-443 -442
441 442 443
-444 20
-444 -306
-20 306 444
-445 -20
-445 46
20 -46 445
-446 -444
-446 -445
444 445 446
-447 20
-447 -315
-20 315 447
-448 -20
-448 47
20 -47 448
-449 -447
-449 -448
447 448 449
-450 20
-450 -324
-20 324 450
-451 -20
-451 48
20 -48 451
-452 -450
-452 -451
450 451 452
-453 20
-453 -333
-20 333 453
-454 -20
-454 49
20 -49 454
-455 -453
-455 -454
453 454 455
-456 20
-456 -342
-20 342 456
-457 -20
-457 50
20 -50 457
-458 -456
-458 -457
456 457 458
-459 20
-459 -351
-20 351 459
-460 -20
-460 51
20 -51 460
-461 -459
-461 -460
459 460 461
-462 20
-462 -360
-20 360 462
-463 -20
-463 52
20 -52 463
-464 -462
-464 -463
462 463 464
-465 20
-465 -369
-20 369 465
-466 1
-466 83
-1 -83 466
-467 -83
-467 84
83 -84 467
-468 -466
-468 -467
466 467 468
-469 2
-469 83
-2 -83 469
-470 -83
-470 -374
83 374 470
-471 -469
-471 -470
469 470 471
-472 3
-472 83
-3 -83 472
-473 -83
-473 -377
83 377 473
-474 -472
-474 -473
472 473 474
-475 4
-475 83
-4 -83 475
-476 -83
-476 -380
83 380 476
-477 -475
-477 -476
475 476 477
-478 5
-478 83
-5 -83 478
-479 -83
-479 -383
83 383 479
-480 -478
-480 -479
478 479 480
-481 6
-481 83
-6 -83 481
-482 -83
-482 -386
83 386 482
-483 -481
-483 -482
481 482 483
-484 7
-484 83
-7 -83 484
-485 -83
-485 -389
83 389 485
-486 -484
-486 -485
484 485 486
-487 8
-487 83
-8 -83 487
-488 -83
-488 -392
83 392 488
-489 -487
-489 -488
487 488 489
-490 9
-490 83
-9 -83 490
-491 -83
-491 -395
83 395 491
-492 -490
-492 -491
490 491 492
-493 10
-493 83
-10 -83 493
-494 -83
-494 -398
83 398 494
-495 -493
-495 -494
493 494 495
-496 11
-496 83
-11 -83 496
-497 -83
-497 -401
83 401 497
-498 -496
-498 -497
496 497 498
-499 12
-499 83
-12 -83 499
-500 -83
-500 -404
83 404 500
-501 -499
-501 -500
499 500 501
-502 13
-502 83
-13 -83 502
-503 -83
-503 -407
83 407 503
-504 -502
-504 -503
502 503 504
-505 14
-505 83
-14 -83 505
-506 -83
-506 -410
83 410 506
-507 -505
-507 -506
505 506 507
-508 15
-508 83
-15 -83 508
-509 -83
-509 -413
83 413 509
-510 -508
-510 -509
508 509 510
-511 16
-511 83
-16 -83 511
-512 -83
-512 -416
83 416 512
-513 -511
-513 -512
511 512 513
-514 17
-514 83
-17 -83 514
-515 -83
-515 -419
83 419 515
-516 -514
-516 -515
514 515 516
-517 18
-517 83
-18 -83 517
-518 -83
-518 -422
83 422 518
-519 -517
-519 -518
517 518 519
-520 19
-520 83
-19 -83 520
-521 -83
-521 -425
83 425 521
-522 -520
-522 -521
520 521 522
-523 -83
-523 -428
83 428 523
-524 -83
-524 -431
83 431 524
-525 -83
-525 -434
83 434 525
-526 -83
-526 -437
83 437 526
-527 -83
-527 -440
83 440 527
-528 -83
-528 -443
83 443 528
-529 -83
-529 -446
83 446 529
-530 -83
-530 -449
83 449 530
-531 -83
-531 -452
83 452 531
-532 -83
-532 -455
83 455 532
-533 -83
-533 -458
83 458 533
-534 -83
-534 -461
83 461 534
-535 -83
-535 -464
83 464 535
-536 -83
-536 465
83 -465 536
-537 -52
-537 371
52 -371 537
-538 20
-538 -537
-20 537 538
538
